\ Model MT-TSP-MICP
\ LP format - for model browsing. Use MPS format to capture full model detail.
Minimize
  l_tilde[0,1] + l_tilde[0,2] + l_tilde[0,3] + l_tilde[0,4] + l_tilde[0,5]
   + l_tilde[1,0] + l_tilde[1,2] + l_tilde[1,3] + l_tilde[1,4]
   + l_tilde[1,5] + l_tilde[2,0] + l_tilde[2,1] + l_tilde[2,3]
   + l_tilde[2,4] + l_tilde[2,5] + l_tilde[3,0] + l_tilde[3,1]
   + l_tilde[3,2] + l_tilde[3,4] + l_tilde[3,5] + l_tilde[4,0]
   + l_tilde[4,1] + l_tilde[4,2] + l_tilde[4,3] + l_tilde[4,5]
   + l_tilde[5,0] + l_tilde[5,1] + l_tilde[5,2] + l_tilde[5,3]
   + l_tilde[5,4]
Subject To
 R0: y_e[0,1] + y_e[0,2] + y_e[0,3] + y_e[0,4] = 1
 R1: y_e[1,5] + y_e[2,5] + y_e[3,5] + y_e[4,5] = 1
 R2: y_e[0,1] + y_e[2,1] + y_e[3,1] + y_e[4,1] + y_e[5,1] = 1
 R3: y_e[1,0] + y_e[1,2] + y_e[1,3] + y_e[1,4] + y_e[1,5] = 1
 R4: y_e[0,2] + y_e[1,2] + y_e[3,2] + y_e[4,2] + y_e[5,2] = 1
 R5: y_e[2,0] + y_e[2,1] + y_e[2,3] + y_e[2,4] + y_e[2,5] = 1
 R6: y_e[0,3] + y_e[1,3] + y_e[2,3] + y_e[4,3] + y_e[5,3] = 1
 R7: y_e[3,0] + y_e[3,1] + y_e[3,2] + y_e[3,4] + y_e[3,5] = 1
 R8: y_e[0,4] + y_e[1,4] + y_e[2,4] + y_e[3,4] + y_e[5,4] = 1
 R9: y_e[4,0] + y_e[4,1] + y_e[4,2] + y_e[4,3] + y_e[4,5] = 1
 R10: t[1] >= 0
 R11: t[1] <= 40
 R12: t[2] >= 0
 R13: t[2] <= 100
 R14: t[3] >= 0
 R15: t[3] <= 100
 R16: t[4] >= 0
 R17: t[4] <= 30
 R18: - 0.1 t[1] + l_x[0,1] = 0
 R19: l_y[0,1] = 10
 R20: 0.5 t[0] - 0.5 t[1] + 500 y_e[0,1] + l_tilde[0,1] <= 500
 R21: t[0] = 0
 R22: t[5] >= 0
 R23: t[5] <= 1000
 R24: 14.14213562373095 y_e[0,1] - l_tilde[0,1] + l[0,1]
   = 14.14213562373095
 R25: l_x[0,2] = 8
 R26: - 0.3 t[2] + l_y[0,2] = 0
 R27: 0.5 t[0] - 0.5 t[2] + 500 y_e[0,2] + l_tilde[0,2] <= 500
 R28: t[0] = 0
 R29: t[5] >= 0
 R30: t[5] <= 1000
 R31: 14.14213562373095 y_e[0,2] - l_tilde[0,2] + l[0,2]
   = 14.14213562373095
 R32: 0.1 t[3] + l_x[0,3] = 5
 R33: - 0.3 t[3] + l_y[0,3] = 5
 R34: 0.5 t[0] - 0.5 t[3] + 500 y_e[0,3] + l_tilde[0,3] <= 500
 R35: t[0] = 0
 R36: t[5] >= 0
 R37: t[5] <= 1000
 R38: 14.14213562373095 y_e[0,3] - l_tilde[0,3] + l[0,3]
   = 14.14213562373095
 R39: - 0.1 t[4] + l_x[0,4] = 1
 R40: - 0.2 t[4] + l_y[0,4] = 6
 R41: 0.5 t[0] - 0.5 t[4] + 500 y_e[0,4] + l_tilde[0,4] <= 500
 R42: t[0] = 0
 R43: t[5] >= 0
 R44: t[5] <= 1000
 R45: 14.14213562373095 y_e[0,4] - l_tilde[0,4] + l[0,4]
   = 14.14213562373095
 R46: l_x[0,5] = 0
 R47: l_y[0,5] = 0
 R48: 0.5 t[0] - 0.5 t[5] + 500 y_e[0,5] + l_tilde[0,5] <= 500
 R49: t[0] = 0
 R50: t[5] >= 0
 R51: t[5] <= 1000
 R52: 14.14213562373095 y_e[0,5] - l_tilde[0,5] + l[0,5]
   = 14.14213562373095
 R53: 0.1 t[1] + l_x[1,0] = 0
 R54: l_y[1,0] = -10
 R55: - 0.5 t[0] + 0.5 t[1] + 500 y_e[1,0] + l_tilde[1,0] <= 500
 R56: t[0] = 0
 R57: t[5] >= 0
 R58: t[5] <= 1000
 R59: 14.14213562373095 y_e[1,0] - l_tilde[1,0] + l[1,0]
   = 14.14213562373095
 R60: 0.1 t[1] + l_x[1,2] = 8
 R61: - 0.3 t[2] + l_y[1,2] = -10
 R62: 0.5 t[1] - 0.5 t[2] + 500 y_e[1,2] + l_tilde[1,2] <= 500
 R63: t[0] = 0
 R64: t[5] >= 0
 R65: t[5] <= 1000
 R66: 14.14213562373095 y_e[1,2] - l_tilde[1,2] + l[1,2]
   = 14.14213562373095
 R67: 0.1 t[1] + 0.1 t[3] + l_x[1,3] = 5
 R68: - 0.3 t[3] + l_y[1,3] = -5
 R69: 0.5 t[1] - 0.5 t[3] + 500 y_e[1,3] + l_tilde[1,3] <= 500
 R70: t[0] = 0
 R71: t[5] >= 0
 R72: t[5] <= 1000
 R73: 14.14213562373095 y_e[1,3] - l_tilde[1,3] + l[1,3]
   = 14.14213562373095
 R74: 0.1 t[1] - 0.1 t[4] + l_x[1,4] = 1
 R75: - 0.2 t[4] + l_y[1,4] = -4
 R76: 0.5 t[1] - 0.5 t[4] + 500 y_e[1,4] + l_tilde[1,4] <= 500
 R77: t[0] = 0
 R78: t[5] >= 0
 R79: t[5] <= 1000
 R80: 14.14213562373095 y_e[1,4] - l_tilde[1,4] + l[1,4]
   = 14.14213562373095
 R81: 0.1 t[1] + l_x[1,5] = 0
 R82: l_y[1,5] = -10
 R83: 0.5 t[1] - 0.5 t[5] + 500 y_e[1,5] + l_tilde[1,5] <= 500
 R84: t[0] = 0
 R85: t[5] >= 0
 R86: t[5] <= 1000
 R87: 14.14213562373095 y_e[1,5] - l_tilde[1,5] + l[1,5]
   = 14.14213562373095
 R88: l_x[2,0] = -8
 R89: 0.3 t[2] + l_y[2,0] = 0
 R90: - 0.5 t[0] + 0.5 t[2] + 500 y_e[2,0] + l_tilde[2,0] <= 500
 R91: t[0] = 0
 R92: t[5] >= 0
 R93: t[5] <= 1000
 R94: 14.14213562373095 y_e[2,0] - l_tilde[2,0] + l[2,0]
   = 14.14213562373095
 R95: - 0.1 t[1] + l_x[2,1] = -8
 R96: 0.3 t[2] + l_y[2,1] = 10
 R97: - 0.5 t[1] + 0.5 t[2] + 500 y_e[2,1] + l_tilde[2,1] <= 500
 R98: t[0] = 0
 R99: t[5] >= 0
 R100: t[5] <= 1000
 R101: 14.14213562373095 y_e[2,1] - l_tilde[2,1] + l[2,1]
   = 14.14213562373095
 R102: 0.1 t[3] + l_x[2,3] = -3
 R103: 0.3 t[2] - 0.3 t[3] + l_y[2,3] = 5
 R104: 0.5 t[2] - 0.5 t[3] + 500 y_e[2,3] + l_tilde[2,3] <= 500
 R105: t[0] = 0
 R106: t[5] >= 0
 R107: t[5] <= 1000
 R108: 14.14213562373095 y_e[2,3] - l_tilde[2,3] + l[2,3]
   = 14.14213562373095
 R109: - 0.1 t[4] + l_x[2,4] = -7
 R110: 0.3 t[2] - 0.2 t[4] + l_y[2,4] = 6
 R111: 0.5 t[2] - 0.5 t[4] + 500 y_e[2,4] + l_tilde[2,4] <= 500
 R112: t[0] = 0
 R113: t[5] >= 0
 R114: t[5] <= 1000
 R115: 14.14213562373095 y_e[2,4] - l_tilde[2,4] + l[2,4]
   = 14.14213562373095
 R116: l_x[2,5] = -8
 R117: 0.3 t[2] + l_y[2,5] = 0
 R118: 0.5 t[2] - 0.5 t[5] + 500 y_e[2,5] + l_tilde[2,5] <= 500
 R119: t[0] = 0
 R120: t[5] >= 0
 R121: t[5] <= 1000
 R122: 14.14213562373095 y_e[2,5] - l_tilde[2,5] + l[2,5]
   = 14.14213562373095
 R123: - 0.1 t[3] + l_x[3,0] = -5
 R124: 0.3 t[3] + l_y[3,0] = -5
 R125: - 0.5 t[0] + 0.5 t[3] + 500 y_e[3,0] + l_tilde[3,0] <= 500
 R126: t[0] = 0
 R127: t[5] >= 0
 R128: t[5] <= 1000
 R129: 14.14213562373095 y_e[3,0] - l_tilde[3,0] + l[3,0]
   = 14.14213562373095
 R130: - 0.1 t[1] - 0.1 t[3] + l_x[3,1] = -5
 R131: 0.3 t[3] + l_y[3,1] = 5
 R132: - 0.5 t[1] + 0.5 t[3] + 500 y_e[3,1] + l_tilde[3,1] <= 500
 R133: t[0] = 0
 R134: t[5] >= 0
 R135: t[5] <= 1000
 R136: 14.14213562373095 y_e[3,1] - l_tilde[3,1] + l[3,1]
   = 14.14213562373095
 R137: - 0.1 t[3] + l_x[3,2] = 3
 R138: - 0.3 t[2] + 0.3 t[3] + l_y[3,2] = -5
 R139: - 0.5 t[2] + 0.5 t[3] + 500 y_e[3,2] + l_tilde[3,2] <= 500
 R140: t[0] = 0
 R141: t[5] >= 0
 R142: t[5] <= 1000
 R143: 14.14213562373095 y_e[3,2] - l_tilde[3,2] + l[3,2]
   = 14.14213562373095
 R144: - 0.1 t[3] - 0.1 t[4] + l_x[3,4] = -4
 R145: 0.3 t[3] - 0.2 t[4] + l_y[3,4] = 1
 R146: 0.5 t[3] - 0.5 t[4] + 500 y_e[3,4] + l_tilde[3,4] <= 500
 R147: t[0] = 0
 R148: t[5] >= 0
 R149: t[5] <= 1000
 R150: 14.14213562373095 y_e[3,4] - l_tilde[3,4] + l[3,4]
   = 14.14213562373095
 R151: - 0.1 t[3] + l_x[3,5] = -5
 R152: 0.3 t[3] + l_y[3,5] = -5
 R153: 0.5 t[3] - 0.5 t[5] + 500 y_e[3,5] + l_tilde[3,5] <= 500
 R154: t[0] = 0
 R155: t[5] >= 0
 R156: t[5] <= 1000
 R157: 14.14213562373095 y_e[3,5] - l_tilde[3,5] + l[3,5]
   = 14.14213562373095
 R158: 0.1 t[4] + l_x[4,0] = -1
 R159: 0.2 t[4] + l_y[4,0] = -6
 R160: - 0.5 t[0] + 0.5 t[4] + 500 y_e[4,0] + l_tilde[4,0] <= 500
 R161: t[0] = 0
 R162: t[5] >= 0
 R163: t[5] <= 1000
 R164: 14.14213562373095 y_e[4,0] - l_tilde[4,0] + l[4,0]
   = 14.14213562373095
 R165: - 0.1 t[1] + 0.1 t[4] + l_x[4,1] = -1
 R166: 0.2 t[4] + l_y[4,1] = 4
 R167: - 0.5 t[1] + 0.5 t[4] + 500 y_e[4,1] + l_tilde[4,1] <= 500
 R168: t[0] = 0
 R169: t[5] >= 0
 R170: t[5] <= 1000
 R171: 14.14213562373095 y_e[4,1] - l_tilde[4,1] + l[4,1]
   = 14.14213562373095
 R172: 0.1 t[4] + l_x[4,2] = 7
 R173: - 0.3 t[2] + 0.2 t[4] + l_y[4,2] = -6
 R174: - 0.5 t[2] + 0.5 t[4] + 500 y_e[4,2] + l_tilde[4,2] <= 500
 R175: t[0] = 0
 R176: t[5] >= 0
 R177: t[5] <= 1000
 R178: 14.14213562373095 y_e[4,2] - l_tilde[4,2] + l[4,2]
   = 14.14213562373095
 R179: 0.1 t[3] + 0.1 t[4] + l_x[4,3] = 4
 R180: - 0.3 t[3] + 0.2 t[4] + l_y[4,3] = -1
 R181: - 0.5 t[3] + 0.5 t[4] + 500 y_e[4,3] + l_tilde[4,3] <= 500
 R182: t[0] = 0
 R183: t[5] >= 0
 R184: t[5] <= 1000
 R185: 14.14213562373095 y_e[4,3] - l_tilde[4,3] + l[4,3]
   = 14.14213562373095
 R186: 0.1 t[4] + l_x[4,5] = -1
 R187: 0.2 t[4] + l_y[4,5] = -6
 R188: 0.5 t[4] - 0.5 t[5] + 500 y_e[4,5] + l_tilde[4,5] <= 500
 R189: t[0] = 0
 R190: t[5] >= 0
 R191: t[5] <= 1000
 R192: 14.14213562373095 y_e[4,5] - l_tilde[4,5] + l[4,5]
   = 14.14213562373095
 R193: l_x[5,0] = 0
 R194: l_y[5,0] = 0
 R195: - 0.5 t[0] + 0.5 t[5] + 500 y_e[5,0] + l_tilde[5,0] <= 500
 R196: t[0] = 0
 R197: t[5] >= 0
 R198: t[5] <= 1000
 R199: 14.14213562373095 y_e[5,0] - l_tilde[5,0] + l[5,0]
   = 14.14213562373095
 R200: - 0.1 t[1] + l_x[5,1] = 0
 R201: l_y[5,1] = 10
 R202: - 0.5 t[1] + 0.5 t[5] + 500 y_e[5,1] + l_tilde[5,1] <= 500
 R203: t[0] = 0
 R204: t[5] >= 0
 R205: t[5] <= 1000
 R206: 14.14213562373095 y_e[5,1] - l_tilde[5,1] + l[5,1]
   = 14.14213562373095
 R207: l_x[5,2] = 8
 R208: - 0.3 t[2] + l_y[5,2] = 0
 R209: - 0.5 t[2] + 0.5 t[5] + 500 y_e[5,2] + l_tilde[5,2] <= 500
 R210: t[0] = 0
 R211: t[5] >= 0
 R212: t[5] <= 1000
 R213: 14.14213562373095 y_e[5,2] - l_tilde[5,2] + l[5,2]
   = 14.14213562373095
 R214: 0.1 t[3] + l_x[5,3] = 5
 R215: - 0.3 t[3] + l_y[5,3] = 5
 R216: - 0.5 t[3] + 0.5 t[5] + 500 y_e[5,3] + l_tilde[5,3] <= 500
 R217: t[0] = 0
 R218: t[5] >= 0
 R219: t[5] <= 1000
 R220: 14.14213562373095 y_e[5,3] - l_tilde[5,3] + l[5,3]
   = 14.14213562373095
 R221: - 0.1 t[4] + l_x[5,4] = 1
 R222: - 0.2 t[4] + l_y[5,4] = 6
 R223: - 0.5 t[4] + 0.5 t[5] + 500 y_e[5,4] + l_tilde[5,4] <= 500
 R224: t[0] = 0
 R225: t[5] >= 0
 R226: t[5] <= 1000
 R227: 14.14213562373095 y_e[5,4] - l_tilde[5,4] + l[5,4]
   = 14.14213562373095
 qc0: 400 y_e[0,1] - 28.2842712474619 l_tilde[0,1] + [ - 200 y_e[0,1] ^2
   + 28.2842712474619 y_e[0,1] * l_tilde[0,1] - l_tilde[0,1] ^2
   + l_x[0,1] ^2 + l_y[0,1] ^2 ] <= 200
 qc1: 400 y_e[0,2] - 28.2842712474619 l_tilde[0,2] + [ - 200 y_e[0,2] ^2
   + 28.2842712474619 y_e[0,2] * l_tilde[0,2] - l_tilde[0,2] ^2
   + l_x[0,2] ^2 + l_y[0,2] ^2 ] <= 200
 qc2: 400 y_e[0,3] - 28.2842712474619 l_tilde[0,3] + [ - 200 y_e[0,3] ^2
   + 28.2842712474619 y_e[0,3] * l_tilde[0,3] - l_tilde[0,3] ^2
   + l_x[0,3] ^2 + l_y[0,3] ^2 ] <= 200
 qc3: 400 y_e[0,4] - 28.2842712474619 l_tilde[0,4] + [ - 200 y_e[0,4] ^2
   + 28.2842712474619 y_e[0,4] * l_tilde[0,4] - l_tilde[0,4] ^2
   + l_x[0,4] ^2 + l_y[0,4] ^2 ] <= 200
 qc4: 400 y_e[0,5] - 28.2842712474619 l_tilde[0,5] + [ - 200 y_e[0,5] ^2
   + 28.2842712474619 y_e[0,5] * l_tilde[0,5] - l_tilde[0,5] ^2
   + l_x[0,5] ^2 + l_y[0,5] ^2 ] <= 200
 qc5: 400 y_e[1,0] - 28.2842712474619 l_tilde[1,0] + [ - 200 y_e[1,0] ^2
   + 28.2842712474619 y_e[1,0] * l_tilde[1,0] - l_tilde[1,0] ^2
   + l_x[1,0] ^2 + l_y[1,0] ^2 ] <= 200
 qc6: 400 y_e[1,2] - 28.2842712474619 l_tilde[1,2] + [ - 200 y_e[1,2] ^2
   + 28.2842712474619 y_e[1,2] * l_tilde[1,2] - l_tilde[1,2] ^2
   + l_x[1,2] ^2 + l_y[1,2] ^2 ] <= 200
 qc7: 400 y_e[1,3] - 28.2842712474619 l_tilde[1,3] + [ - 200 y_e[1,3] ^2
   + 28.2842712474619 y_e[1,3] * l_tilde[1,3] - l_tilde[1,3] ^2
   + l_x[1,3] ^2 + l_y[1,3] ^2 ] <= 200
 qc8: 400 y_e[1,4] - 28.2842712474619 l_tilde[1,4] + [ - 200 y_e[1,4] ^2
   + 28.2842712474619 y_e[1,4] * l_tilde[1,4] - l_tilde[1,4] ^2
   + l_x[1,4] ^2 + l_y[1,4] ^2 ] <= 200
 qc9: 400 y_e[1,5] - 28.2842712474619 l_tilde[1,5] + [ - 200 y_e[1,5] ^2
   + 28.2842712474619 y_e[1,5] * l_tilde[1,5] - l_tilde[1,5] ^2
   + l_x[1,5] ^2 + l_y[1,5] ^2 ] <= 200
 qc10: 400 y_e[2,0] - 28.2842712474619 l_tilde[2,0] + [ - 200 y_e[2,0] ^2
   + 28.2842712474619 y_e[2,0] * l_tilde[2,0] - l_tilde[2,0] ^2
   + l_x[2,0] ^2 + l_y[2,0] ^2 ] <= 200
 qc11: 400 y_e[2,1] - 28.2842712474619 l_tilde[2,1] + [ - 200 y_e[2,1] ^2
   + 28.2842712474619 y_e[2,1] * l_tilde[2,1] - l_tilde[2,1] ^2
   + l_x[2,1] ^2 + l_y[2,1] ^2 ] <= 200
 qc12: 400 y_e[2,3] - 28.2842712474619 l_tilde[2,3] + [ - 200 y_e[2,3] ^2
   + 28.2842712474619 y_e[2,3] * l_tilde[2,3] - l_tilde[2,3] ^2
   + l_x[2,3] ^2 + l_y[2,3] ^2 ] <= 200
 qc13: 400 y_e[2,4] - 28.2842712474619 l_tilde[2,4] + [ - 200 y_e[2,4] ^2
   + 28.2842712474619 y_e[2,4] * l_tilde[2,4] - l_tilde[2,4] ^2
   + l_x[2,4] ^2 + l_y[2,4] ^2 ] <= 200
 qc14: 400 y_e[2,5] - 28.2842712474619 l_tilde[2,5] + [ - 200 y_e[2,5] ^2
   + 28.2842712474619 y_e[2,5] * l_tilde[2,5] - l_tilde[2,5] ^2
   + l_x[2,5] ^2 + l_y[2,5] ^2 ] <= 200
 qc15: 400 y_e[3,0] - 28.2842712474619 l_tilde[3,0] + [ - 200 y_e[3,0] ^2
   + 28.2842712474619 y_e[3,0] * l_tilde[3,0] - l_tilde[3,0] ^2
   + l_x[3,0] ^2 + l_y[3,0] ^2 ] <= 200
 qc16: 400 y_e[3,1] - 28.2842712474619 l_tilde[3,1] + [ - 200 y_e[3,1] ^2
   + 28.2842712474619 y_e[3,1] * l_tilde[3,1] - l_tilde[3,1] ^2
   + l_x[3,1] ^2 + l_y[3,1] ^2 ] <= 200
 qc17: 400 y_e[3,2] - 28.2842712474619 l_tilde[3,2] + [ - 200 y_e[3,2] ^2
   + 28.2842712474619 y_e[3,2] * l_tilde[3,2] - l_tilde[3,2] ^2
   + l_x[3,2] ^2 + l_y[3,2] ^2 ] <= 200
 qc18: 400 y_e[3,4] - 28.2842712474619 l_tilde[3,4] + [ - 200 y_e[3,4] ^2
   + 28.2842712474619 y_e[3,4] * l_tilde[3,4] - l_tilde[3,4] ^2
   + l_x[3,4] ^2 + l_y[3,4] ^2 ] <= 200
 qc19: 400 y_e[3,5] - 28.2842712474619 l_tilde[3,5] + [ - 200 y_e[3,5] ^2
   + 28.2842712474619 y_e[3,5] * l_tilde[3,5] - l_tilde[3,5] ^2
   + l_x[3,5] ^2 + l_y[3,5] ^2 ] <= 200
 qc20: 400 y_e[4,0] - 28.2842712474619 l_tilde[4,0] + [ - 200 y_e[4,0] ^2
   + 28.2842712474619 y_e[4,0] * l_tilde[4,0] - l_tilde[4,0] ^2
   + l_x[4,0] ^2 + l_y[4,0] ^2 ] <= 200
 qc21: 400 y_e[4,1] - 28.2842712474619 l_tilde[4,1] + [ - 200 y_e[4,1] ^2
   + 28.2842712474619 y_e[4,1] * l_tilde[4,1] - l_tilde[4,1] ^2
   + l_x[4,1] ^2 + l_y[4,1] ^2 ] <= 200
 qc22: 400 y_e[4,2] - 28.2842712474619 l_tilde[4,2] + [ - 200 y_e[4,2] ^2
   + 28.2842712474619 y_e[4,2] * l_tilde[4,2] - l_tilde[4,2] ^2
   + l_x[4,2] ^2 + l_y[4,2] ^2 ] <= 200
 qc23: 400 y_e[4,3] - 28.2842712474619 l_tilde[4,3] + [ - 200 y_e[4,3] ^2
   + 28.2842712474619 y_e[4,3] * l_tilde[4,3] - l_tilde[4,3] ^2
   + l_x[4,3] ^2 + l_y[4,3] ^2 ] <= 200
 qc24: 400 y_e[4,5] - 28.2842712474619 l_tilde[4,5] + [ - 200 y_e[4,5] ^2
   + 28.2842712474619 y_e[4,5] * l_tilde[4,5] - l_tilde[4,5] ^2
   + l_x[4,5] ^2 + l_y[4,5] ^2 ] <= 200
 qc25: 400 y_e[5,0] - 28.2842712474619 l_tilde[5,0] + [ - 200 y_e[5,0] ^2
   + 28.2842712474619 y_e[5,0] * l_tilde[5,0] - l_tilde[5,0] ^2
   + l_x[5,0] ^2 + l_y[5,0] ^2 ] <= 200
 qc26: 400 y_e[5,1] - 28.2842712474619 l_tilde[5,1] + [ - 200 y_e[5,1] ^2
   + 28.2842712474619 y_e[5,1] * l_tilde[5,1] - l_tilde[5,1] ^2
   + l_x[5,1] ^2 + l_y[5,1] ^2 ] <= 200
 qc27: 400 y_e[5,2] - 28.2842712474619 l_tilde[5,2] + [ - 200 y_e[5,2] ^2
   + 28.2842712474619 y_e[5,2] * l_tilde[5,2] - l_tilde[5,2] ^2
   + l_x[5,2] ^2 + l_y[5,2] ^2 ] <= 200
 qc28: 400 y_e[5,3] - 28.2842712474619 l_tilde[5,3] + [ - 200 y_e[5,3] ^2
   + 28.2842712474619 y_e[5,3] * l_tilde[5,3] - l_tilde[5,3] ^2
   + l_x[5,3] ^2 + l_y[5,3] ^2 ] <= 200
 qc29: 400 y_e[5,4] - 28.2842712474619 l_tilde[5,4] + [ - 200 y_e[5,4] ^2
   + 28.2842712474619 y_e[5,4] * l_tilde[5,4] - l_tilde[5,4] ^2
   + l_x[5,4] ^2 + l_y[5,4] ^2 ] <= 200
Bounds
 t[0] <= 1000
 t[1] <= 1000
 t[2] <= 1000
 t[3] <= 1000
 t[4] <= 1000
 t[5] <= 1000
 l_x[0,1] free
 l_x[0,2] free
 l_x[0,3] free
 l_x[0,4] free
 l_x[0,5] free
 l_x[1,0] free
 l_x[1,2] free
 l_x[1,3] free
 l_x[1,4] free
 l_x[1,5] free
 l_x[2,0] free
 l_x[2,1] free
 l_x[2,3] free
 l_x[2,4] free
 l_x[2,5] free
 l_x[3,0] free
 l_x[3,1] free
 l_x[3,2] free
 l_x[3,4] free
 l_x[3,5] free
 l_x[4,0] free
 l_x[4,1] free
 l_x[4,2] free
 l_x[4,3] free
 l_x[4,5] free
 l_x[5,0] free
 l_x[5,1] free
 l_x[5,2] free
 l_x[5,3] free
 l_x[5,4] free
 l_y[0,1] free
 l_y[0,2] free
 l_y[0,3] free
 l_y[0,4] free
 l_y[0,5] free
 l_y[1,0] free
 l_y[1,2] free
 l_y[1,3] free
 l_y[1,4] free
 l_y[1,5] free
 l_y[2,0] free
 l_y[2,1] free
 l_y[2,3] free
 l_y[2,4] free
 l_y[2,5] free
 l_y[3,0] free
 l_y[3,1] free
 l_y[3,2] free
 l_y[3,4] free
 l_y[3,5] free
 l_y[4,0] free
 l_y[4,1] free
 l_y[4,2] free
 l_y[4,3] free
 l_y[4,5] free
 l_y[5,0] free
 l_y[5,1] free
 l_y[5,2] free
 l_y[5,3] free
 l_y[5,4] free
Binaries
 y_e[0,1] y_e[0,2] y_e[0,3] y_e[0,4] y_e[0,5] y_e[1,0] y_e[1,2] y_e[1,3]
 y_e[1,4] y_e[1,5] y_e[2,0] y_e[2,1] y_e[2,3] y_e[2,4] y_e[2,5] y_e[3,0]
 y_e[3,1] y_e[3,2] y_e[3,4] y_e[3,5] y_e[4,0] y_e[4,1] y_e[4,2] y_e[4,3]
 y_e[4,5] y_e[5,0] y_e[5,1] y_e[5,2] y_e[5,3] y_e[5,4]
End
